int NumberPatients = 67
int NumberOfRooms = 16
int NumberSurgeons = 19
int NumberOfDays = 6
Duration = [98,98,103,103,119,217,140,101,227,72,98,117,66,78,98,159,201,66,32,60,74,55,103,32,210,119,98,201,47,47,119,66,46,119,103,98,72,140,238,32,72,47,66,119,72,30,93,66,53,210,101,98,105,317,53,47,97,32,103,92,101,32,103,165,85,132,66];
Priority = [0,0,0,0,0,0,0,0,0,0,0,0,1,0,0,0,0,0,0,0,0,0,0,0,0,0,0,0,0,0,0,0,0,0,0,0,0,0,0,0,0,0,0,0,0,0,0,0,0,0,0,0,0,0,0,0,0,0,0,0,0,0,0,0,0,0,0];
Waiting = [162,73,200,113,144,35,21,95,52,431,487,21,23,158,315,158,190,84,72,71,46,50,70,120,127,60,70,113,72,37,95,389,184,317,84,175,43,50,122,317,274,23,473,121,79,107,107,43,45,56,211,86,191,428,361,37,338,78,324,102,94,116,277,242,319,52,60];
Surgeon = [1,5,1,2,1,1,3,1,4,5,6,5,10,6,8,5,6,6,3,1,4,4,8,4,11,7,1,4,1,3,13,1,3,3,3,4,2,3,2,5,1,3,6,1,5,1,12,1,1,1,6,3,1,6,4,2,2,3,1,4,1,1,3,3,2,5,8];
BlockAvailability = [[[1,1],[0,0],[1,1],[0,0],[1,0],[0,0],[0,0],[0,0],[1,0],[0,0],[0,0],[0,1],[0,0],[0,0],[0,1],[0,0]],[[0,0],[0,0],[0,1],[0,1],[0,0],[0,0],[0,0],[0,1],[0,0],[0,0],[0,0],[0,0],[1,0],[0,0],[1,0],[0,0]],[[0,0],[1,0],[1,0],[0,1],[0,1],[0,0],[1,0],[0,1],[0,0],[1,0],[0,0],[0,1],[0,0],[0,1],[0,0],[0,0]],[[1,1],[1,1],[0,1],[0,0],[0,0],[1,0],[1,0],[0,1],[0,0],[1,0],[0,0],[0,1],[0,0],[0,0],[0,0],[1,0]],[[0,0],[1,1],[1,0],[0,0],[0,0],[0,0],[0,1],[0,1],[1,0],[0,1],[1,0],[0,0],[0,0],[1,0],[0,0],[0,1]],[[0,0],[0,1],[0,1],[0,1],[0,0],[0,0],[0,0],[1,1],[0,0],[1,0],[0,0],[1,0],[0,0],[1,0],[1,1],[0,1]]];
SurgeonAvailability = [[[1,1],[1,1],[1,1],[0,1],[1,1],[0,1]],[[0,1],[0,1],[1,1],[1,1],[1,1],[0,1]],[[1,0],[1,1],[1,1],[1,1],[1,1],[1,1]],[[0,0],[0,1],[1,1],[1,1],[1,1],[1,1]],[[1,1],[0,1],[1,0],[1,1],[0,1],[1,1]],[[1,1],[1,1],[1,1],[0,1],[1,1],[1,1]],[[1,1],[1,1],[1,1],[1,0],[0,1],[0,1]],[[1,0],[1,1],[1,1],[1,1],[1,1],[1,1]],[[1,0],[0,0],[0,1],[1,1],[1,1],[1,1]],[[1,1],[0,1],[1,1],[1,0],[1,1],[0,0]],[[1,1],[0,1],[1,1],[1,1],[1,1],[1,0]],[[1,0],[1,1],[0,1],[1,0],[1,1],[1,1]],[[1,0],[1,0],[1,1],[1,1],[1,0],[0,1]],[[0,1],[1,1],[1,1],[1,1],[0,0],[1,1]],[[0,1],[1,0],[1,1],[1,1],[1,1],[1,1]],[[1,1],[0,0],[1,1],[0,1],[0,0],[1,1]],[[1,1],[1,1],[0,0],[1,1],[0,1],[1,1]],[[1,1],[1,0],[1,1],[1,1],[0,0],[1,0]],[[0,1],[1,1],[1,0],[1,1],[1,1],[1,1]]];
